








































































































36 54 34 75 59 25 58 
15 39 55 53 23 6 65 50 
48 26 43 70 62 16 30 33 
67 9 18 66 41 29 73 71 
69 24 22 13 46 63 4 52 27 
7 45 68 61 14 44 32 20 
11 19 5 47 72 64 74 28 49 
3 21 51 1 38 2 10 42 
12 76 60 35 31 
17 0 8 56 37 57 40 
